NAME : ftv44.80.2184.tour
COMMENT : Length = 2184
COMMENT : Found by LKH [Keld Helsgaun] Tue Dec 11 00:01:48 2018
TYPE : TOUR
DIMENSION : 47
TOUR_SECTION
1
2
3
32
31
30
25
35
47
42
7
8
9
10
40
46
41
37
38
39
36
33
34
28
29
26
27
43
24
23
19
17
15
20
5
45
4
6
21
11
44
12
13
14
16
18
22
-1
EOF
